NAME: test16
TYPE: TSP
DIMENSION: 10
EDGE_WEIGHT_TYPE: EUC_2D
NODE_COORD_SECTION
1 89.83189220314334 34.59456732183814
2 26.24024528483213 49.973710598253675
3 71.91567925622773 65.50721484687234
4 48.51464907453349 94.94149173792952
5 28.08848371930843 3.3074248665668438
6 5.82794206249827 55.63390158544485
7 20.505848915640247 64.08001729800439
8 64.00390792018065 15.844100170079578
9 28.5974337920881 72.64475890121479
10 44.25383058157052 37.85200983324921
EOF
